NAME: I12484-n34-k6
COMMENT : (Fake et al, No of trucks: 6, Optimal value: )
TYPE : CVRP
DIMENSION : 34
EDGE_WEIGHT_TYPE : EUC_2D
CAPACITY : 43
NODE_COORD_SECTION
1 697 430
2 323 255
3 589 595
4 544 124
5 532 207
6 606 930
7 262 957
8 790 616
9 46 318
10 851 184
11 701 853
12 798 68
13 479 742
14 704 318
15 117 400
16 186 446
17 468 288
18 710 428
19 509 208
20 136 219
21 802 247
22 42 169
23 651 109
24 853 603
25 921 423
26 897 794
27 149 337
28 204 864
29 812 574
30 561 972
31 588 595
32 641 156
33 800 124
34 552 458
DEMAND_SECTION
1 0
2 10
3 7
4 7
5 7
6 10
7 3
8 9
9 4
10 7
11 10
12 5
13 2
14 2
15 1
16 10
17 5
18 9
19 6
20 10
21 1
22 7
23 8
24 10
25 2
26 3
27 9
28 6
29 9
30 7
31 3
32 6
33 7
34 10
DEPOT_SECTION
 1
 -1
 EOF 